NAME: ville07
TYPE: TSP
COMMENT: 29 Cities in Bavaria, geographical distances (Groetschel,Juenger,Reinelt)
DIMENSION: 29
EDGE_WEIGHT_TYPE: EXPLICIT
EDGE_WEIGHT_FORMAT: UPPER_ROW 
DISPLAY_DATA_TYPE: TWOD_DISPLAY
EDGE_WEIGHT_SECTION
8000 7071 3162 5656 5830 3000 2828 5099 2828 5000 4123
12041 11180 5000 9433 8062 4472 6082 6403 2236 3162
11704 11180 7280 10630 6082 3162 5385 4123 2236
10198 9486 5099 8485 5830 2236 4000 4242
8602 8485 8246 9486 2000 2236 3162
6324 5830 5830 6324 3162 2236
8544 8062 6082 8062 3605
7071 7211 8944 9055
5656 4242 5099
9486 8246
1414
DISPLAY_DATA_SECTION
    1      1.0      1.0
    2      1.0      2.0
    3      3.0      4.0
    4      6.5      3.0
    5      6.5      1.0
    6      3.0      1.0
EOF
